226 147944
1 74 75 76 73 72 13 12 11 9 10 14 15 17 18 19 20 21 22 23 24 25 26 27 29 30 34 35 38 39 40 41 154 153 152 151 146 145 139 147 149 142 143 150 180 179 178 177 176 175 174 173 172 171 148 141 140 138 137 64 61 62 63 95 96 89 88 90 98 99 91 100 92 93 101 102 221 224 225 226 223 222 220 219 218 217 216 215 202 188 187 186 185 184 183 182 181 170 169 168 167 166 165 164 163 162 161 160 159 156 155 157 158 144 94 97 87 43 42 44 37 36 31 28 50 51 52 53 54 55 56 57 58 59 60 49 32 33 48 45 46 47 136 135 134 66 65 67 16 71 68 69 70 103 111 112 114 113 105 104 106 107 108 117 118 119 126 120 128 127 129 121 122 131 130 123 124 125 132 214 213 212 211 210 209 208 207 206 205 204 203 201 200 199 198 197 196 195 194 193 192 191 190 189 133 110 109 116 115 86 85 84 83 82 81 80 79 78 77 8 7 6 5 4 3 2 
